p cnf 205 559
a 1 2 3 4 5 6 7 8 9 10 11 12 13 14 15 16 17 18 19 20 21 22 23 24 0
e 25 26 27 28 29 30 31 32 33 34 35 36 37 38 39 40 41 42 43 44 45 46 47 48 49 50 51 52 53 54 55 56 57 58 59 60 61 62 63 64 65 66 67 68 69 70 71 72 73 74 75 76 77 78 79 80 81 82 83 84 85 86 87 88 89 90 91 92 93 94 95 96 97 98 99 100 101 102 103 104 105 106 107 108 109 110 111 112 113 114 115 116 117 118 119 120 121 122 123 124 125 126 127 128 129 130 131 132 133 134 135 136 137 138 139 140 141 142 143 144 145 146 147 148 149 150 151 152 153 154 155 156 157 158 159 160 161 162 163 164 165 166 167 168 169 170 171 172 173 174 175 176 177 178 179 180 181 182 183 184 185 186 187 188 189 190 191 192 193 194 195 196 197 198 199 200 201 202 203 204 0
-1 -41 0
-2 -41 0
-3 -41 0
1 2 3 41 0
-4 -42 0
-5 -42 0
-6 -42 0
4 5 6 42 0
41 -43 0
42 -43 0
-7 -43 0
-8 -43 0
7 8 43 -41 -42 0
-7 -8 -44 0
7 8 -44 0
8 44 -7 0
7 44 -8 0
45 -1 0
1 -45 0
-2 -45 -46 0
2 45 -46 0
45 46 -2 0
2 46 -45 0
2 -47 0
45 -47 0
47 -2 -45 0
48 -47 0
47 -48 0
-3 -48 -49 0
3 48 -49 0
48 49 -3 0
3 49 -48 0
3 -50 0
48 -50 0
50 -3 -48 0
51 -50 0
50 -51 0
-44 -52 0
-1 -52 0
44 1 52 0
44 -53 0
1 -53 0
53 -44 -1 0
54 -52 0
54 -53 0
52 53 -54 0
-44 -55 0
46 -55 0
44 55 -46 0
44 -56 0
2 -56 0
56 -44 -2 0
57 -55 0
57 -56 0
55 56 -57 0
-44 -58 0
49 -58 0
44 58 -49 0
44 -59 0
3 -59 0
59 -44 -3 0
60 -58 0
60 -59 0
58 59 -60 0
-9 -54 -61 0
9 54 -61 0
54 61 -9 0
9 61 -54 0
-10 -57 -62 0
10 57 -62 0
57 62 -10 0
10 62 -57 0
-11 -60 -63 0
11 60 -63 0
60 63 -11 0
11 63 -60 0
-61 -64 0
-62 -64 0
-63 -64 0
61 62 63 64 0
65 -4 0
4 -65 0
-5 -65 -66 0
5 65 -66 0
65 66 -5 0
5 66 -65 0
5 -67 0
65 -67 0
67 -5 -65 0
68 -67 0
67 -68 0
-6 -68 -69 0
6 68 -69 0
68 69 -6 0
6 69 -68 0
6 -70 0
68 -70 0
70 -6 -68 0
71 -70 0
70 -71 0
-44 -72 0
4 -72 0
44 72 -4 0
44 -73 0
-4 -73 0
4 73 -44 0
74 -72 0
74 -73 0
72 73 -74 0
-44 -75 0
5 -75 0
44 75 -5 0
44 -76 0
66 -76 0
76 -44 -66 0
77 -75 0
77 -76 0
75 76 -77 0
-44 -78 0
6 -78 0
44 78 -6 0
44 -79 0
69 -79 0
79 -44 -69 0
80 -78 0
80 -79 0
78 79 -80 0
-12 -74 -81 0
12 74 -81 0
74 81 -12 0
12 81 -74 0
-13 -77 -82 0
13 77 -82 0
77 82 -13 0
13 82 -77 0
-14 -80 -83 0
14 80 -83 0
80 83 -14 0
14 83 -80 0
-81 -84 0
-82 -84 0
-83 -84 0
81 82 83 84 0
8 -15 -85 0
15 -8 -85 0
85 -15 -8 0
15 8 85 0
-16 -7 -86 0
16 7 -86 0
7 86 -16 0
16 86 -7 0
64 -87 0
84 -87 0
-85 -87 0
-86 -87 0
85 86 87 -64 -84 0
-15 -16 -88 0
15 16 -88 0
16 88 -15 0
15 88 -16 0
89 -9 0
9 -89 0
-10 -89 -90 0
10 89 -90 0
89 90 -10 0
10 90 -89 0
10 -91 0
89 -91 0
91 -10 -89 0
92 -91 0
91 -92 0
-11 -92 -93 0
11 92 -93 0
92 93 -11 0
11 93 -92 0
11 -94 0
92 -94 0
94 -11 -92 0
95 -94 0
94 -95 0
-88 -96 0
-9 -96 0
88 9 96 0
88 -97 0
9 -97 0
97 -88 -9 0
98 -96 0
98 -97 0
96 97 -98 0
-88 -99 0
90 -99 0
88 99 -90 0
88 -100 0
10 -100 0
100 -88 -10 0
101 -99 0
101 -100 0
99 100 -101 0
-88 -102 0
93 -102 0
88 102 -93 0
88 -103 0
11 -103 0
103 -88 -11 0
104 -102 0
104 -103 0
102 103 -104 0
-17 -98 -105 0
17 98 -105 0
98 105 -17 0
17 105 -98 0
-18 -101 -106 0
18 101 -106 0
101 106 -18 0
18 106 -101 0
-19 -104 -107 0
19 104 -107 0
104 107 -19 0
19 107 -104 0
-105 -108 0
-106 -108 0
-107 -108 0
105 106 107 108 0
109 -12 0
12 -109 0
-13 -109 -110 0
13 109 -110 0
109 110 -13 0
13 110 -109 0
13 -111 0
109 -111 0
111 -13 -109 0
112 -111 0
111 -112 0
-14 -112 -113 0
14 112 -113 0
112 113 -14 0
14 113 -112 0
14 -114 0
112 -114 0
114 -14 -112 0
115 -114 0
114 -115 0
-88 -116 0
12 -116 0
88 116 -12 0
88 -117 0
-12 -117 0
12 117 -88 0
118 -116 0
118 -117 0
116 117 -118 0
-88 -119 0
13 -119 0
88 119 -13 0
88 -120 0
110 -120 0
120 -88 -110 0
121 -119 0
121 -120 0
119 120 -121 0
-88 -122 0
14 -122 0
88 122 -14 0
88 -123 0
113 -123 0
123 -88 -113 0
124 -122 0
124 -123 0
122 123 -124 0
-20 -118 -125 0
20 118 -125 0
118 125 -20 0
20 125 -118 0
-21 -121 -126 0
21 121 -126 0
121 126 -21 0
21 126 -121 0
-22 -124 -127 0
22 124 -127 0
124 127 -22 0
22 127 -124 0
-125 -128 0
-126 -128 0
-127 -128 0
125 126 127 128 0
16 -23 -129 0
23 -16 -129 0
129 -23 -16 0
23 16 129 0
-24 -15 -130 0
24 15 -130 0
15 130 -24 0
24 130 -15 0
108 -131 0
128 -131 0
-129 -131 0
-130 -131 0
129 130 131 -108 -128 0
43 -132 0
87 -132 0
131 -132 0
132 -43 -87 -131 0
-25 -133 0
-26 -133 0
-27 -133 0
25 26 27 133 0
-28 -134 0
-29 -134 0
-30 -134 0
28 29 30 134 0
133 -135 0
134 -135 0
-31 -135 0
-32 -135 0
31 32 135 -133 -134 0
-31 -32 -136 0
31 32 -136 0
32 136 -31 0
31 136 -32 0
137 -25 0
25 -137 0
-26 -137 -138 0
26 137 -138 0
137 138 -26 0
26 138 -137 0
26 -139 0
137 -139 0
139 -26 -137 0
140 -139 0
139 -140 0
-27 -140 -141 0
27 140 -141 0
140 141 -27 0
27 141 -140 0
27 -142 0
140 -142 0
142 -27 -140 0
143 -142 0
142 -143 0
-136 -144 0
-25 -144 0
136 25 144 0
136 -145 0
25 -145 0
145 -136 -25 0
146 -144 0
146 -145 0
144 145 -146 0
-136 -147 0
138 -147 0
136 147 -138 0
136 -148 0
26 -148 0
148 -136 -26 0
149 -147 0
149 -148 0
147 148 -149 0
-136 -150 0
141 -150 0
136 150 -141 0
136 -151 0
27 -151 0
151 -136 -27 0
152 -150 0
152 -151 0
150 151 -152 0
-33 -146 -153 0
33 146 -153 0
146 153 -33 0
33 153 -146 0
-34 -149 -154 0
34 149 -154 0
149 154 -34 0
34 154 -149 0
-35 -152 -155 0
35 152 -155 0
152 155 -35 0
35 155 -152 0
-153 -156 0
-154 -156 0
-155 -156 0
153 154 155 156 0
157 -28 0
28 -157 0
-29 -157 -158 0
29 157 -158 0
157 158 -29 0
29 158 -157 0
29 -159 0
157 -159 0
159 -29 -157 0
160 -159 0
159 -160 0
-30 -160 -161 0
30 160 -161 0
160 161 -30 0
30 161 -160 0
30 -162 0
160 -162 0
162 -30 -160 0
163 -162 0
162 -163 0
-136 -164 0
28 -164 0
136 164 -28 0
136 -165 0
-28 -165 0
28 165 -136 0
166 -164 0
166 -165 0
164 165 -166 0
-136 -167 0
29 -167 0
136 167 -29 0
136 -168 0
158 -168 0
168 -136 -158 0
169 -167 0
169 -168 0
167 168 -169 0
-136 -170 0
30 -170 0
136 170 -30 0
136 -171 0
161 -171 0
171 -136 -161 0
172 -170 0
172 -171 0
170 171 -172 0
-36 -166 -173 0
36 166 -173 0
166 173 -36 0
36 173 -166 0
-37 -169 -174 0
37 169 -174 0
169 174 -37 0
37 174 -169 0
-38 -172 -175 0
38 172 -175 0
172 175 -38 0
38 175 -172 0
-173 -176 0
-174 -176 0
-175 -176 0
173 174 175 176 0
32 -39 -177 0
39 -32 -177 0
177 -39 -32 0
39 32 177 0
-40 -31 -178 0
40 31 -178 0
31 178 -40 0
40 178 -31 0
156 -179 0
176 -179 0
-177 -179 0
-178 -179 0
177 178 179 -156 -176 0
135 -180 0
179 -180 0
180 -135 -179 0
-17 -25 -181 0
17 25 -181 0
25 181 -17 0
17 181 -25 0
-18 -26 -182 0
18 26 -182 0
26 182 -18 0
18 182 -26 0
-19 -27 -183 0
19 27 -183 0
27 183 -19 0
19 183 -27 0
-181 -184 0
-182 -184 0
-183 -184 0
181 182 183 184 0
-20 -28 -185 0
20 28 -185 0
28 185 -20 0
20 185 -28 0
-21 -29 -186 0
21 29 -186 0
29 186 -21 0
21 186 -29 0
-22 -30 -187 0
22 30 -187 0
30 187 -22 0
22 187 -30 0
-185 -188 0
-186 -188 0
-187 -188 0
185 186 187 188 0
-23 -31 -189 0
23 31 -189 0
31 189 -23 0
23 189 -31 0
-24 -32 -190 0
24 32 -190 0
32 190 -24 0
24 190 -32 0
184 -191 0
188 -191 0
-189 -191 0
-190 -191 0
189 190 191 -184 -188 0
-17 -33 -192 0
17 33 -192 0
33 192 -17 0
17 192 -33 0
-18 -34 -193 0
18 34 -193 0
34 193 -18 0
18 193 -34 0
-19 -35 -194 0
19 35 -194 0
35 194 -19 0
19 194 -35 0
-192 -195 0
-193 -195 0
-194 -195 0
192 193 194 195 0
-20 -36 -196 0
20 36 -196 0
36 196 -20 0
20 196 -36 0
-21 -37 -197 0
21 37 -197 0
37 197 -21 0
21 197 -37 0
-22 -38 -198 0
22 38 -198 0
38 198 -22 0
22 198 -38 0
-196 -199 0
-197 -199 0
-198 -199 0
196 197 198 199 0
-23 -39 -200 0
23 39 -200 0
39 200 -23 0
23 200 -39 0
-24 -40 -201 0
24 40 -201 0
40 201 -24 0
24 201 -40 0
195 -202 0
199 -202 0
-200 -202 0
-201 -202 0
200 201 202 -195 -199 0
203 -191 0
203 -202 0
191 202 -203 0
180 -204 0
203 -204 0
204 -180 -203 0
204 -132 0
